(set-info :Origin "This instance was generated by: BanditFuzz-- an RL fuzzer for SMT solvers" )
(set-info :Author "Joe Scott, Fed Mora, Vijay Ganesh" )
(set-info :Contact "Joe Scott, joseph.scott@uwaterloo.ca")
(set-logic QF_BV)
(declare-const bool_0 Bool)
(declare-const bool_1 Bool)
(declare-const bool_2 Bool)
(declare-const bool_3 Bool)
(declare-const bool_4 Bool)
(declare-const bv_0 (_ BitVec 32))
(declare-const bv_1 (_ BitVec 32))
(declare-const bv_2 (_ BitVec 32))
(declare-const bv_3 (_ BitVec 32))
(declare-const bv_4 (_ BitVec 32))
(assert (bvsle (bvxor (bvudiv #xccf245d0  bv_0) (bvshl #xbe78557a  bv_4)) (bvsmod (bvadd bv_3 #x944c64ff ) (bvudiv bv_4 #x67229ff2 ))))
(assert (xor (=> (bvugt bv_2 #x4bfa6f46 ) (xor true true)) (bvuge (bvand bv_3 bv_3) (bvashr bv_2 #x37e22b82 ))))
(assert (bvsle (bvurem (bvudiv bv_4 #x8805aead ) (bvor bv_3 #x4ac24a50 )) (bvashr (bvnand #xc1c47b0b  #xcf4cedea ) (bvsmod bv_4 bv_3))))
(assert (and (bvslt (bvnor #x17855848  #xc793300e ) (bvshl #x43ea831e  bv_1)) (bvule (bvxor bv_2 bv_4) (bvshl bv_1 bv_0))))
(assert (bvuge (bvsdiv (bvshl bv_2 bv_3) (bvxor bv_1 #x83b21b9a )) (bvor (bvor bv_1 #x9633c263 ) (bvand bv_3 bv_1))))
(check-sat)
(exit)
